data;


param d:= 100;
param r:=5;
param p:=0.720000;
param M:=1000;
param U:=
         1         1        6.754314e-01
         2         1        9.442798e-01
         3         1       -5.209531e-01
         4         1       -1.318975e+00
         5         1       -5.851276e-01
         6         1       -3.704722e-01
         7         1        7.681017e-01
         8         1        1.031866e-01
         9         1       -1.525597e+00
        10         1       -1.118315e+00
        11         1        2.299846e-01
        12         1        1.322111e+00
        13         1       -7.468557e-01
        14         1       -4.594213e-01
        15         1       -8.799243e-01
        16         1        1.082538e+00
        17         1        7.251750e-01
        18         1       -1.220446e+00
        19         1       -2.727807e-01
        20         1        4.668767e-02
        21         1        8.091028e-01
        22         1       -3.140302e-01
        23         1        2.314210e-01
        24         1        5.173858e-01
        25         1       -1.075767e+00
        26         1       -1.790768e+00
        27         1        7.950440e-02
        28         1       -1.120884e+00
        29         1        1.071884e+00
        30         1        5.153038e-01
        31         1        7.529993e-01
        32         1        4.047775e-01
        33         1       -1.039742e+00
        34         1       -2.020574e+00
        35         1       -2.543682e-01
        36         1        1.784342e+00
        37         1       -7.473046e-02
        38         1        3.336478e+00
        39         1        7.591016e-01
        40         1        8.074364e-01
        41         1        7.787903e-01
        42         1        7.168503e-01
        43         1        7.541238e-01
        44         1       -2.478980e-01
        45         1        7.377370e-01
        46         1        4.614258e-01
        47         1       -2.092795e-01
        48         1       -5.288208e-01
        49         1       -1.790505e-02
        50         1        1.239079e+00
        51         1        1.122027e+00
        52         1       -1.226488e-01
        53         1        7.076286e-01
        54         1        1.168411e+00
        55         1        1.921582e+00
        56         1        3.294743e-01
        57         1       -9.177898e-01
        58         1       -2.294738e+00
        59         1       -9.152792e-01
        60         1        1.886354e-01
        61         1       -1.978975e-01
        62         1       -2.283950e-01
        63         1        9.043447e-01
        64         1       -1.760140e+00
        65         1       -5.438717e-01
        66         1       -1.319303e+00
        67         1       -1.746376e+00
        68         1        7.936213e-01
        69         1       -1.525331e-01
        70         1       -7.505889e-01
        71         1        4.064562e-01
        72         1       -6.508040e-01
        73         1       -3.317749e-01
        74         1        1.248001e+00
        75         1        8.250291e-01
        76         1       -9.368581e-01
        77         1        3.957805e-01
        78         1       -1.188640e-01
        79         1        7.414983e-01
        80         1       -7.268641e-02
        81         1       -1.145926e+00
        82         1       -1.290260e+00
        83         1       -4.974170e-01
        84         1       -1.638985e+00
        85         1        1.628406e+00
        86         1        4.135682e-01
        87         1       -1.130964e+00
        88         1        1.912320e+00
        89         1        1.018762e+00
        90         1       -7.662748e-01
        91         1       -6.575459e-01
        92         1        2.082570e+00
        93         1       -6.530466e-01
        94         1       -4.696170e-01
        95         1        8.940497e-01
        96         1        2.547329e-01
        97         1       -2.932432e-01
        98         1        1.198542e-04
        99         1       -8.711300e-01
       100         1       -1.249416e-01
         1         2       -6.432089e-01
         2         2        4.807278e-01
         3         2        7.859360e-01
         4         2        8.356832e-01
         5         2        1.782758e+00
         6         2       -1.490870e-01
         7         2       -1.816804e-01
         8         2        6.713087e-01
         9         2        6.738082e-01
        10         2        4.265106e-01
        11         2        1.883149e-01
        12         2        2.596120e-01
        13         2        1.226326e+00
        14         2        2.809664e-02
        15         2       -2.129622e+00
        16         2        8.105020e-01
        17         2       -1.565709e-01
        18         2        2.202886e+00
        19         2        2.232045e-01
        20         2        5.602510e-01
        21         2       -9.883557e-01
        22         2        8.846646e-01
        23         2        1.657039e-02
        24         2       -8.536490e-01
        25         2        8.111827e-01
        26         2       -1.393433e+00
        27         2       -1.956577e-01
        28         2       -1.443656e-01
        29         2        5.380593e-01
        30         2        1.329916e+00
        31         2        7.238066e-01
        32         2        2.665418e-01
        33         2       -9.141209e-01
        34         2        2.304021e+00
        35         2       -6.902205e-01
        36         2        6.318238e-02
        37         2        6.805867e-02
        38         2       -3.104960e-01
        39         2        2.835854e-01
        40         2        5.770174e-01
        41         2       -1.471439e+00
        42         2       -3.711609e-01
        43         2        1.247856e+00
        44         2       -8.174446e-02
        45         2       -2.084036e-01
        46         2       -1.209056e+00
        47         2        4.199572e-01
        48         2        5.438006e-01
        49         2       -6.568367e-01
        50         2        1.221771e+00
        51         2        1.481846e+00
        52         2        1.537331e+00
        53         2       -8.786854e-01
        54         2       -1.194080e+00
        55         2       -5.724860e-01
        56         2       -1.583146e-02
        57         2        1.971623e-01
        58         2        3.307565e-03
        59         2       -4.991496e-01
        60         2        3.511526e-01
        61         2        1.052432e+00
        62         2       -3.830650e-01
        63         2       -7.918924e-01
        64         2        1.053814e+00
        65         2        4.722279e-01
        66         2       -4.400442e-01
        67         2       -1.633515e+00
        68         2       -7.514123e-02
        69         2        2.547306e+00
        70         2        5.064186e-01
        71         2       -6.494347e-01
        72         2        3.473958e-01
        73         2        1.838896e-01
        74         2       -1.009309e+00
        75         2        1.765749e+00
        76         2        2.901958e-01
        77         2       -7.231460e-01
        78         2        1.401407e+00
        79         2       -7.771051e-01
        80         2        1.099018e+00
        81         2        1.232902e+00
        82         2        1.870725e+00
        83         2       -3.134534e-01
        84         2        1.243615e+00
        85         2        1.952758e-01
        86         2       -5.201062e-01
        87         2       -4.058492e-01
        88         2        1.492130e+00
        89         2        2.191150e-01
        90         2        6.481252e-01
        91         2       -5.263570e-01
        92         2        8.928591e-01
        93         2        1.345835e+00
        94         2       -1.027964e+00
        95         2        1.369846e+00
        96         2        1.347644e+00
        97         2       -4.579914e-01
        98         2        3.620964e-01
        99         2        8.261299e-02
       100         2       -2.463467e+00
         1         3        1.466500e+00
         2         3        1.024890e+00
         3         3       -7.619203e-01
         4         3        7.942277e-01
         5         3       -2.233107e-01
         6         3        9.037464e-02
         7         3        1.977890e-01
         8         3       -1.445721e-01
         9         3       -5.079360e-01
        10         3       -2.944403e-02
        11         3        4.742119e-01
        12         3       -2.095873e+00
        13         3       -5.875168e-01
        14         3        1.542983e+00
        15         3        9.080828e-01
        16         3       -2.097145e+00
        17         3       -2.504331e-01
        18         3        2.157736e-01
        19         3       -1.917833e+00
        20         3        9.752960e-02
        21         3        1.722830e-01
        22         3        7.061752e-01
        23         3       -8.580363e-01
        24         3       -1.466897e+00
        25         3        6.465063e-02
        26         3       -2.726227e-01
        27         3       -1.100518e+00
        28         3        1.575100e-01
        29         3        5.625462e-01
        30         3        8.299342e-01
        31         3       -1.000149e+00
        32         3        2.703418e-01
        33         3       -2.235849e-01
        34         3        1.528737e-01
        35         3        1.109775e+00
        36         3        6.293292e-01
        37         3       -1.403183e+00
        38         3        2.507474e-01
        39         3        1.176561e+00
        40         3       -2.098701e+00
        41         3       -6.612598e-01
        42         3        9.801850e-03
        43         3       -8.367446e-01
        44         3        6.744057e-01
        45         3       -1.508402e+00
        46         3        3.176042e-01
        47         3        7.640407e-02
        48         3        3.411617e-01
        49         3       -6.657100e-01
        50         3       -2.193010e-01
        51         3        1.403811e+00
        52         3        1.314154e-01
        53         3        1.934726e+00
        54         3        1.271543e+00
        55         3       -6.679570e-02
        56         3        1.883583e+00
        57         3        1.073043e+00
        58         3       -7.266876e-01
        59         3       -4.956149e-01
        60         3        3.087791e-01
        61         3       -3.798896e-01
        62         3        1.522311e+00
        63         3        2.211152e-01
        64         3        2.678876e+00
        65         3       -7.547020e-02
        66         3       -9.457384e-01
        67         3        3.550376e-01
        68         3       -8.237765e-01
        69         3       -3.269191e-01
        70         3       -1.104686e+00
        71         3       -8.141667e-01
        72         3        9.811957e-01
        73         3        1.161351e+00
        74         3       -8.801595e-01
        75         3       -6.652244e-01
        76         3        2.250584e-01
        77         3       -9.059095e-01
        78         3       -1.697942e-01
        79         3       -6.908555e-01
        80         3       -1.770261e+00
        81         3       -8.191653e-01
        82         3        7.820587e-01
        83         3        5.919822e-02
        84         3       -4.716228e-01
        85         3       -1.275343e+00
        86         3        4.825474e-01
        87         3        1.959859e+00
        88         3       -2.869959e-02
        89         3       -1.178839e+00
        90         3        6.009568e-01
        91         3       -2.523014e-01
        92         3       -7.895022e-01
        93         3        8.905284e-01
        94         3        9.065149e-01
        95         3       -1.189182e+00
        96         3        1.144339e-01
        97         3        1.539591e+00
        98         3       -4.333408e-01
        99         3        8.764328e-01
       100         3       -1.787768e+00
         1         4       -6.484579e-02
         2         4        1.399573e+00
         3         4        5.244969e-01
         4         4        5.731279e-01
         5         4       -6.534661e-01
         6         4        2.979066e-01
         7         4       -2.157241e+00
         8         4       -2.069494e-01
         9         4       -3.235676e-01
        10         4        1.154635e-01
        11         4       -2.350595e-01
        12         4       -1.198525e+00
        13         4        3.782847e-01
        14         4        1.138589e+00
        15         4        1.550841e-01
        16         4       -1.271687e+00
        17         4        2.201618e+00
        18         4        1.015814e+00
        19         4        1.108729e+00
        20         4       -8.479742e-01
        21         4       -5.252444e-01
        22         4       -1.605790e-01
        23         4        1.715225e-01
        24         4        9.398923e-01
        25         4       -1.971046e+00
        26         4       -4.010014e-01
        27         4        7.119191e-01
        28         4       -7.511664e-01
        29         4       -4.420795e-02
        30         4        3.627582e-01
        31         4       -1.651722e+00
        32         4        7.290429e-02
        33         4        6.474538e-01
        34         4       -1.171330e+00
        35         4       -4.202833e-01
        36         4        6.833588e-02
        37         4       -1.447409e+00
        38         4       -1.702374e+00
        39         4        7.469003e-01
        40         4       -4.377712e-01
        41         4       -7.492247e-01
        42         4        2.078039e-01
        43         4        7.109904e-01
        44         4       -1.822935e+00
        45         4       -4.593837e-01
        46         4       -6.108781e-01
        47         4        1.507080e+00
        48         4        2.072847e+00
        49         4       -8.207309e-01
        50         4        4.155894e-01
        51         4        4.159061e-01
        52         4        1.721070e+00
        53         4       -8.411639e-01
        54         4       -1.816130e+00
        55         4       -6.572263e-01
        56         4        4.050532e-01
        57         4       -8.799974e-01
        58         4       -8.266458e-01
        59         4        8.065732e-02
        60         4       -2.098848e-01
        61         4        1.043748e+00
        62         4       -1.282296e+00
        63         4        7.122333e-01
        64         4        7.360701e-01
        65         4        6.733951e-01
        66         4       -1.089398e+00
        67         4        1.309641e+00
        68         4       -1.187957e-01
        69         4       -8.265557e-01
        70         4       -3.301388e-01
        71         4       -2.921018e-01
        72         4        3.914942e-01
        73         4        2.171104e-02
        74         4        8.253616e-01
        75         4       -1.638401e+00
        76         4       -6.866136e-01
        77         4       -2.625203e+00
        78         4        2.510247e-01
        79         4       -2.178885e-02
        80         4       -1.970060e+00
        81         4        9.200516e-01
        82         4       -3.752700e-01
        83         4       -6.959731e-02
        84         4        4.401998e-03
        85         4        3.567897e-01
        86         4       -7.011970e-01
        87         4        6.147321e-01
        88         4        1.229214e+00
        89         4        1.637162e-01
        90         4        1.326962e-01
        91         4        4.048724e-01
        92         4        1.695397e-01
        93         4        9.735950e-02
        94         4        8.999536e-01
        95         4        7.946046e-01
        96         4       -3.132683e-01
        97         4       -7.123684e-01
        98         4       -7.374057e-01
        99         4        3.738940e-01
       100         4       -4.494633e-01
         1         5        2.890742e-01
         2         5        3.093892e-01
         3         5       -2.063769e-01
         4         5        1.175878e+00
         5         5       -4.908323e-01
         6         5       -7.107797e-01
         7         5       -1.394874e-01
         8         5       -1.389110e+00
         9         5        4.210714e-01
        10         5       -1.931413e+00
        11         5        2.013812e-01
        12         5        4.454030e-01
        13         5        3.803854e-01
        14         5        4.200706e-01
        15         5        8.269245e-01
        16         5        9.957312e-02
        17         5       -4.712064e-02
        18         5        1.003759e+00
        19         5       -1.445518e-01
        20         5        3.315745e-01
        21         5        8.561407e-01
        22         5        1.337393e+00
        23         5        3.599349e-01
        24         5        6.366715e-02
        25         5        1.480739e-01
        26         5       -3.269436e+00
        27         5        9.899341e-01
        28         5        1.139851e+00
        29         5       -1.541517e+00
        30         5        3.332011e-01
        31         5       -4.430598e-02
        32         5        4.263203e-01
        33         5       -6.870762e-01
        34         5       -7.351072e-01
        35         5       -2.837608e-01
        36         5       -6.135959e-03
        37         5        9.052314e-01
        38         5        5.747769e-01
        39         5       -1.144030e-01
        40         5       -1.111881e+00
        41         5       -8.044233e-01
        42         5       -9.834699e-01
        43         5        6.688762e-01
        44         5        7.459540e-01
        45         5       -3.600001e-01
        46         5        2.804736e-01
        47         5        2.194448e-01
        48         5       -9.411355e-02
        49         5       -7.744876e-01
        50         5       -3.027591e-03
        51         5       -2.675076e-02
        52         5       -8.326447e-01
        53         5       -6.540564e-01
        54         5       -5.660460e-03
        55         5       -1.195329e+00
        56         5       -1.325769e+00
        57         5        9.990355e-02
        58         5        3.003004e+00
        59         5       -1.235527e+00
        60         5        1.162036e+00
        61         5        5.140431e-01
        62         5       -2.679858e-01
        63         5        1.484113e-01
        64         5       -1.134698e+00
        65         5        5.318447e-01
        66         5        6.908890e-01
        67         5       -5.566149e-01
        68         5       -1.263439e+00
        69         5       -4.950743e-01
        70         5       -1.994805e-01
        71         5        8.835308e-01
        72         5        1.993307e-01
        73         5        9.666213e-01
        74         5       -1.909898e+00
        75         5        5.616472e-01
        76         5        7.151387e-01
        77         5       -2.529567e-01
        78         5        7.195340e-01
        79         5       -6.491394e-01
        80         5        7.249636e-01
        81         5       -2.780786e-01
        82         5       -2.276874e-01
        83         5       -2.904946e-02
        84         5        7.398810e-01
        85         5        9.251097e-01
        86         5       -3.774170e-01
        87         5        3.851817e-01
        88         5        1.470471e+00
        89         5       -6.626231e-01
        90         5       -2.206419e-01
        91         5       -1.368491e+00
        92         5       -1.027582e+00
        93         5        1.556029e+00
        94         5       -5.706529e-01
        95         5       -1.180995e+00
        96         5        8.371371e-01
        97         5        6.236419e-01
        98         5       -1.312037e+00
        99         5       -1.302945e+00
       100         5       -3.544026e-01
;

param theta:=
    1        2.579668e+00
    2        6.445117e-01
    3       -1.843760e+00
    4       -1.845229e+00
    5        2.419483e-01
;
param X_true:=
    1       -1.187410e+00
    2       -1.651262e+00
    3       -4.512924e-01
    4       -5.101878e+00
    5        1.138497e+00
    6       -1.939908e+00
    7        5.447349e+00
    8        1.011834e+00
    9       -1.866183e+00
   10       -3.236712e+00
   11        3.232206e-01
   12        9.761555e+00
   13       -6.590790e-01
   14       -6.009858e+00
   15       -5.402298e+00
   16        9.553230e+00
   17       -1.843475e+00
   18       -3.760287e+00
   19        8.947221e-01
   20        1.947995e+00
   21        2.309491e+00
   22       -9.228156e-01
   23        1.961642e+00
   24        1.770466e+00
   25        1.302472e+00
   26       -5.068039e+00
   27        1.033833e+00
   28       -1.613366e+00
   29        1.783026e+00
   30        6.774888e-02
   31        7.291273e+00
   32        6.866024e-01
   33       -4.220292e+00
   34       -2.028510e+00
   35       -2.440463e+00
   36        3.356165e+00
   37        5.328869e+00
   38        1.122513e+01
   39       -1.435227e+00
   40        6.862685e+00
   41        3.466841e+00
   42        9.709601e-01
   43        3.141442e+00
   44        1.609643e+00
   45        5.309402e+00
   46        1.019818e+00
   47       -3.136279e+00
   48       -5.490877e+00
   49        2.086036e+00
   50        3.620691e+00
   51        4.892265e-01
   52       -2.943313e+00
   53       -9.127421e-01
   54        3.249544e+00
   55        5.633244e+00
   56       -3.701158e+00
   57       -2.571052e+00
   58       -2.326251e+00
   59       -2.218066e+00
   60        8.123686e-01
   61       -9.335918e-01
   62       -1.340287e+00
   63        1.381105e-01
   64       -1.043238e+01
   65       -2.072107e+00
   66        2.325974e-01
   67       -8.763019e+00
   68        3.429465e+00
   69        3.255490e+00
   70        9.877883e-01
   71        2.884751e+00
   72       -3.935437e+00
   73       -2.687338e+00
   74        2.207902e+00
   75        7.651911e+00
   76       -1.204903e+00
   77        7.006561e+00
   78        6.214889e-01
   79        2.569655e+00
   80        7.595188e+00
   81       -2.416116e+00
   82       -2.925714e+00
   83       -1.473089e+00
   84       -2.386910e+00
   85        6.242387e+00
   86        1.046276e+00
   87       -7.833943e+00
   88        4.033480e+00
   89        4.480757e+00
   90       -2.964101e+00
   91       -2.649353e+00
   92        6.839456e+00
   93       -2.261869e+00
   94       -5.343583e+00
   95        3.629020e+00
   96        2.095307e+00
   97       -2.424759e+00
   98        2.076828e+00
   99       -4.815516e+00
  100        2.129699e+00
;
param X:=
    1        3.574468e-01
    2       -5.976602e-02
    3       -9.664020e-02
    4       -1.808132e+00
    5       -5.522415e-01
    6        1.421525e+00
    7        4.539025e-01
    8       -3.309120e-02
    9       -5.113695e-01
   10       -3.236712e+00
   11        8.628396e-01
   12        9.761555e+00
   13       -9.724030e-03
   14        5.355199e-01
   15       -2.185095e-03
   16        9.553230e+00
   17        2.438420e-02
   18       -3.760287e+00
   19        8.947221e-01
   20       -7.889252e-01
   21        1.141930e+00
   22       -1.464158e-01
   23        1.961642e+00
   24        3.162262e-01
   25       -1.043497e+00
   26       -5.068039e+00
   27        1.033833e+00
   28       -1.613366e+00
   29       -4.452362e-01
   30        6.774888e-02
   31        1.255831e-01
   32        6.866024e-01
   33       -1.075821e+00
   34       -2.028510e+00
   35        1.156544e+00
   36        2.210191e-01
   37        5.952331e-01
   38        2.882185e-01
   39        4.101392e-01
   40        6.862685e+00
   41       -2.974216e-01
   42        9.709601e-01
   43       -7.264675e-01
   44        1.609643e+00
   45        5.309402e+00
   46       -1.596394e-01
   47       -2.820729e-01
   48       -1.654019e+00
   49        5.342804e-01
   50       -2.898273e-01
   51       -3.403150e-01
   52       -2.943313e+00
   53       -6.871453e-01
   54        1.360753e+00
   55        9.344209e-01
   56       -9.796732e-01
   57       -9.904266e-01
   58       -2.326251e+00
   59       -2.218066e+00
   60       -2.425624e-01
   61        1.813541e+00
   62        8.371891e-01
   63        1.305762e+00
   64        1.224664e+00
   65       -2.072107e+00
   66       -5.157416e-01
   67       -5.319016e-01
   68        1.753930e-01
   69       -1.256647e+00
   70       -6.311007e-01
   71        2.884751e+00
   72       -1.648274e+00
   73        2.681195e-01
   74       -4.372151e-02
   75        3.679981e-01
   76        5.324230e-02
   77       -1.782497e-01
   78        6.214889e-01
   79       -2.377688e+00
   80       -6.293045e-01
   81       -7.772885e-01
   82        1.455621e+00
   83       -1.473089e+00
   84       -1.514377e+00
   85        6.242387e+00
   86       -8.981668e-01
   87        2.506359e-01
   88        6.836572e-03
   89        4.480757e+00
   90        1.570563e+00
   91       -1.584397e+00
   92        6.839456e+00
   93       -9.148262e-01
   94       -5.343583e+00
   95       -1.396579e-02
   96        2.095307e+00
   97       -4.893409e-01
   98        7.376429e-01
   99        1.746685e+00
  100       -4.813105e-01
;
param outliervec:=
    1    1
    2    1
    3    1
    4    1
    5    1
    6    1
    7    1
    8    1
    9    1
   10    0
   11    1
   12    0
   13    1
   14    1
   15    1
   16    0
   17    1
   18    0
   19    0
   20    1
   21    1
   22    1
   23    0
   24    1
   25    1
   26    0
   27    0
   28    0
   29    1
   30    0
   31    1
   32    0
   33    1
   34    0
   35    1
   36    1
   37    1
   38    1
   39    1
   40    0
   41    1
   42    0
   43    1
   44    0
   45    0
   46    1
   47    1
   48    1
   49    1
   50    1
   51    1
   52    0
   53    1
   54    1
   55    1
   56    1
   57    1
   58    0
   59    0
   60    1
   61    1
   62    1
   63    1
   64    1
   65    0
   66    1
   67    1
   68    1
   69    1
   70    1
   71    0
   72    1
   73    1
   74    1
   75    1
   76    1
   77    1
   78    0
   79    1
   80    1
   81    1
   82    1
   83    0
   84    1
   85    0
   86    1
   87    1
   88    1
   89    0
   90    1
   91    1
   92    0
   93    1
   94    0
   95    1
   96    0
   97    1
   98    1
   99    1
  100    1
;